 S Mo
   1.0
     3.1398200900000002    0.0000000000000000    0.0000000000000000
    -1.5699100399999999    2.7191639599999999    0.0000000000000000
     0.0000000000000000    0.0000000000000000   18.6842276399999996
 S Mo
   6   3
Direct
   0.3333333300000000  0.6666666700000000  0.0831180200000000
   0.0000000000000000  0.0000000000000000  0.2497822800000000
   0.0000000000000000  0.0000000000000000  0.4164513600000000
   0.6666666700000000  0.3333333300000000  0.5831156100000000
   0.6666666700000000  0.3333333300000000  0.7497846900000000
   0.3333333300000000  0.6666666700000000  0.9164489500000000
   0.6666666700000000  0.3333333300000000  0.3330996800000000
   0.3333333300000000  0.6666666700000000  0.6664330100000000
   0.0000000000000000  0.0000000000000000  0.9997663500000000