 Li S Nb
   1.0
     3.3409127000000001    0.0000000000000000    0.0000000000000000
    -1.6704563500000000    2.8933152700000000    0.0000000000000000
     0.0000000000000000    0.0000000000000000   12.8059319699999996
 Li S Nb
   2   4   2
Direct
   0.0000000000000000  0.0000000000000000  0.0000000000000000
   0.0000000000000000  0.0000000000000000  0.5000000000000000
   0.3333333300000000  0.6666666700000000  0.8726880400000000
   0.3333333300000000  0.6666666700000000  0.6273119600000000
   0.6666666700000000  0.3333333300000000  0.3726880400000000
   0.6666666700000000  0.3333333300000000  0.1273119600000000
   0.0000000000000000  0.0000000000000000  0.7500000000000000
   0.0000000000000000  0.0000000000000000  0.2500000000000000